20 42 
1 3 1
2 5 1
3 5 1
2 6 1
6 9 1
1 10 1
2 11 1
8 11 1
9 11 1
10 11 1
2 12 1
4 12 1
5 13 1
8 13 1
10 13 1
6 14 1
10 14 1
12 14 1
1 15 1
7 15 1
9 15 1
12 15 1
4 16 1
5 16 1
11 16 1
15 16 1
2 17 1
5 17 1
7 17 1
10 17 1
15 17 1
3 18 1
10 18 1
13 18 1
3 19 1
8 19 1
16 19 1
18 19 1
1 20 1
2 20 1
5 20 1
16 20 1
